Set parameter TSPort to value 51199
Set parameter TokenServer to value "open-license1.lanl.gov"
Set parameter TimeLimit to value 2048
Set parameter Threads to value 1
Gurobi Optimizer version 10.0.3 build v10.0.3rc0 (linux64)

CPU model: Intel(R) Xeon(R) CPU E5-2695 v4 @ 2.10GHz, instruction set [SSE2|AVX|AVX2]
Thread count: 36 physical cores, 72 logical processors, using up to 1 threads

Optimize a model with 0 rows, 1940 columns and 0 nonzeros
Model fingerprint: 0x3c13a515
Model has 8856 quadratic objective terms
Variable types: 0 continuous, 1940 integer (1940 binary)
Coefficient statistics:
  Matrix range     [0e+00, 0e+00]
  Objective range  [2e+00, 3e+01]
  QObjective range [8e+00, 8e+00]
  Bounds range     [1e+00, 1e+00]
  RHS range        [0e+00, 0e+00]
Found heuristic solution: objective 0.0000000
Found heuristic solution: objective -3276.000000
Found heuristic solution: objective -11862.00000
Found heuristic solution: objective -11898.00000
Presolve removed 0 rows and 3 columns
Presolve time: 0.36s
Presolved: 8851 rows, 10788 columns, 26553 nonzeros
Variable types: 0 continuous, 10788 integer (10788 binary)

Root relaxation: objective -1.660000e+04, 2825 iterations, 0.05 seconds (0.02 work units)

    Nodes    |    Current Node    |     Objective Bounds      |     Work
 Expl Unexpl |  Obj  Depth IntInf | Incumbent    BestBd   Gap | It/Node Time

     0     0 -16600.000    0 1937 -11898.000 -16600.000  39.5%     -    0s
     0     0 -15484.000    0 2491 -11898.000 -15484.000  30.1%     -    1s
     0     0 -15323.333    0 2601 -11898.000 -15323.333  28.8%     -    1s
     0     0 -15317.333    0 2601 -11898.000 -15317.333  28.7%     -    1s
     0     0 -15008.200    0 2864 -11898.000 -15008.200  26.1%     -    2s
     0     0 -15008.200    0 2806 -11898.000 -15008.200  26.1%     -    2s
     0     2 -15008.193    0 2800 -11898.000 -15008.193  26.1%     -    3s
    72    74 -14700.533   36 3127 -11898.000 -14996.867  26.0%   123    6s
   326   328 -13722.533  164 3710 -11898.000 -14996.867  26.0%  94.5   10s
   702   704 -12623.533  352 3894 -11898.000 -14996.867  26.0%  75.8   15s
   945   947 -12067.750  475 3611 -11898.000 -14996.867  26.0%  68.2   20s
  1104  1053 -12621.533  352 1937 -11898.000 -14996.348  26.0%  62.4   25s
  1108  1056 -14281.533   86 3550 -11898.000 -14281.533  20.0%  62.2   30s
  1116  1061 -12366.083  408 4104 -11898.000 -13995.868  17.6%  61.7   46s
  1117  1062 -13634.533  177 4324 -11898.000 -13936.271  17.1%  61.7   60s
  1118  1063 -12725.700  323 4589 -11898.000 -13918.351  17.0%  61.6   67s
  1120  1064 -12242.083  432 4634 -11898.000 -13911.639  16.9%  61.5   70s
  1128  1069 -13705.270  133 5017 -11898.000 -13705.270  15.2%  61.1  112s
  1129  1070 -11994.250  499 5440 -11898.000 -13656.442  14.8%  61.0  141s
  1130  1071 -12222.083  437 5580 -11898.000 -13645.519  14.7%  60.9  150s
  1131  1071 -13641.144   31 5697 -11898.000 -13641.144  14.7%  60.9  155s
  1133  1073 -12097.750  468 5830 -11898.000 -13638.813  14.6%  60.8  160s
  1140  1077 -13637.983  115 5921 -11898.000 -13637.983  14.6%  60.4  166s
  1141  1078 -13484.476   79 6374 -11898.000 -13484.476  13.3%  60.4  233s
  1142  1079 -12032.750  485 6682 -11898.000 -13455.440  13.1%  60.3  264s
  1143  1079 -11960.750  512 6846 -11898.000 -13447.516  13.0%  60.3  278s
  1144  1080 -13393.533  213 6918 -11898.000 -13444.564  13.0%  60.2  286s
  1145  1081 -11954.750  514 6900 -11898.000 -13443.800  13.0%  60.1  290s
  1150  1084 -13443.225   52 7006 -11898.000 -13443.225  13.0%  59.9  295s
  1152  1085 -13327.297   49 7470 -11898.000 -13327.297  12.0%  59.8  378s
  1153  1086 -13306.212  108 7705 -11898.000 -13306.212  11.8%  59.7  420s
  1154  1087 -12536.333  370 7852 -11898.000 -13301.123  11.8%  59.7  438s
  1155  1087 -13298.985  151 7907 -11898.000 -13298.985  11.8%  59.6  448s
  1156  1088 -12948.700  283 8011 -11898.000 -13298.249  11.8%  59.6  453s
  1157  1089 -11938.750  521 8035 -11898.000 -13297.919  11.8%  59.5  456s
  1159  1090 -12979.033  277 8089 -11898.000 -13297.666  11.8%  59.4  460s
  1163  1093 -12215.083  439 8522 -11898.000 -13209.902  11.0%  59.2  562s
  1164  1093 -12491.333  381 8712 -11898.000 -13195.572  10.9%  59.2  608s
  1165  1094 -13192.647   21 8726 -11898.000 -13192.647  10.9%  59.1  624s
  1166  1095 -13191.537  157 8780 -11898.000 -13191.537  10.9%  59.1  633s
  1167  1095 -12192.083  444 8785 -11898.000 -13190.988  10.9%  59.0  641s
  1169  1097 -13190.821  245 8804 -11898.000 -13190.821  10.9%  58.9  645s
  1173  1099 -12425.333  394 8767 -11898.000 -13152.092  10.5%  58.7  726s
  1174  1100 -11934.750  522 8837 -11898.000 -13145.580  10.5%  58.7  760s
  1175  1101 -12821.700  305 8923 -11898.000 -13143.900  10.5%  58.6  773s
  1176  1101 -13143.527  156 8953 -11898.000 -13143.527  10.5%  58.6  778s
  1177  1102 -12227.083  435 8964 -11898.000 -13143.400  10.5%  58.5  781s
  1180  1104 -13143.305  126 8969 -11898.000 -13143.305  10.5%  58.4  785s
  1182  1105 -13113.255   50 8885 -11898.000 -13113.255  10.2%  58.3  857s
  1183  1106 -13107.596  240 9022 -11898.000 -13107.596  10.2%  58.2  896s
  1184  1107 -13106.592  149 9089 -11898.000 -13106.592  10.2%  58.2  906s
  1185  1107 -11959.750  511 9111 -11898.000 -13106.428  10.2%  58.1  910s
  1189  1110 -13106.343  182 9130 -11898.000 -13106.343  10.2%  57.9  915s
  1190  1111 -13087.791  122 9010 -11898.000 -13087.791  10.0%  57.9  974s
  1191  1111 -12299.083  423 9097 -11898.000 -13084.242  10.0%  57.8 1003s
  1192  1112 -11937.750  520 9141 -11898.000 -13083.365  10.0%  57.8 1012s
  1193  1113 -13083.136   48 9140 -11898.000 -13083.136  10.0%  57.7 1016s
  1197  1115 -12479.333  383 9205 -11898.000 -13083.048  10.0%  57.5 1022s
  1198  1116 -13064.987   47 9099 -11898.000 -13064.987  9.81%  57.5 1082s
  1199  1117 -13061.134  197 9143 -11898.000 -13061.134  9.78%  57.4 1108s
  1200  1117 -12375.083  406 9209 -11898.000 -13060.323  9.77%  57.4 1117s
  1201  1118 -11943.750  518 9246 -11898.000 -13060.121  9.77%  57.3 1121s
  1204  1120 -12621.533  352 9261 -11898.000 -13060.062  9.77%  57.2 1125s
  1205  1121 -12668.200  336 9174 -11898.000 -13046.376  9.65%  57.2 1179s
  1206  1121 -13043.412   21 9248 -11898.000 -13043.412  9.63%  57.1 1202s
  1207  1122 -12999.700  274 9258 -11898.000 -13042.806  9.62%  57.1 1210s
  1209  1123 -11933.750  522 9309 -11898.000 -13042.578  9.62%  57.0 1215s
  1213  1126 -13029.993   13 9259 -11898.000 -13029.993  9.51%  56.8 1274s
  1214  1127 -12940.700  284 9327 -11898.000 -13026.495  9.48%  56.7 1304s
  1215  1127 -11968.750  508 9326 -11898.000 -13025.916  9.48%  56.7 1312s
  1216  1128 -12366.083  408 9356 -11898.000 -13025.727  9.48%  56.6 1316s
  1218  1129 -12725.700  323 9382 -11898.000 -13025.647  9.48%  56.5 1320s
  1222  1132 -13013.714  142 9290 -11898.000 -13013.714  9.38%  56.4 1380s
  1223  1133 -12180.083  446 9336 -11898.000 -13011.145  9.36%  56.3 1404s
  1224  1133 -13010.756  201 9363 -11898.000 -13010.756  9.35%  56.3 1411s
  1226  1135 -13010.623   26 9407 -11898.000 -13010.623  9.35%  56.2 1415s
  1230  1137 -12222.083  437 9340 -11898.000 -13000.739  9.27%  56.0 1466s
  1231  1138 -12998.379   31 9412 -11898.000 -12998.379  9.25%  55.9 1488s
  1232  1139 -12997.814  100 9453 -11898.000 -12997.814  9.24%  55.9 1498s
  1233  1139 -12097.750  468 9476 -11898.000 -12997.665  9.24%  55.9 1501s
  1236  1141 -12166.083  453 9495 -11898.000 -12997.600  9.24%  55.7 1505s
  1237  1142 -11922.750  526 9393 -11898.000 -12988.602  9.17%  55.7 1560s
  1238  1143 -12986.137   78 9468 -11898.000 -12986.137  9.15%  55.6 1584s
  1239  1143 -12985.688  152 9491 -11898.000 -12985.688  9.14%  55.6 1592s
  1240  1144 -12985.576  115 9495 -11898.000 -12985.576  9.14%  55.5 1595s
  1244  1147 -12977.203  213 9450 -11898.000 -12977.203  9.07%  55.4 1651s
  1245  1147 -11954.750  514 9520 -11898.000 -12974.927  9.05%  55.3 1676s
  1246  1148 -12643.200  341 9536 -11898.000 -12974.592  9.05%  55.3 1683s
  1247  1149 -12104.750  467 9571 -11898.000 -12974.506  9.05%  55.2 1686s
  1251  1151 -12968.225  243 9473 -11898.000 -12968.225  8.99%  55.0 1734s
  1252  1152 -12966.498   49 9534 -11898.000 -12966.498  8.98%  55.0 1756s
  1253  1153 -12966.081  108 9557 -11898.000 -12966.081  8.98%  55.0 1764s
  1254  1153 -12536.333  370 9580 -11898.000 -12965.975  8.98%  54.9 1767s
  1255  1154 -12965.909  151 9582 -11898.000 -12965.909  8.98%  54.9 1770s
  1259  1157 -12961.821  277 9479 -11898.000 -12961.821  8.94%  54.7 1805s
  1260  1157 -12457.333  387 9532 -11898.000 -12960.754  8.93%  54.7 1819s
  1261  1158 -12960.532    5 9556 -11898.000 -12960.532  8.93%  54.6 1825s
  1265  1161 -12960.464   21 9596 -11898.000 -12960.464  8.93%  54.4 1830s
  1266  1161 -12954.711  157 9512 -11898.000 -12954.711  8.88%  54.4 1877s
  1267  1162 -12192.083  444 9585 -11898.000 -12953.540  8.87%  54.4 1896s
  1268  1163 -12881.700  293 9628 -11898.000 -12953.312  8.87%  54.3 1902s
  1269  1163 -12953.248  245 9645 -11898.000 -12953.248  8.87%  54.3 1905s
  1274  1167 -11934.750  522 9576 -11898.000 -12949.465  8.84%  54.1 1944s
  1275  1167 -12821.700  305 9614 -11898.000 -12948.237  8.83%  54.0 1963s
  1276  1168 -12947.896  156 9656 -11898.000 -12947.896  8.82%  54.0 1970s
  1278  1169 -12425.333  394 9681 -11898.000 -12947.792  8.82%  53.9 1975s
  1281  1171 -12947.312  222 9642 -11898.000 -12947.312  8.82%  53.8 1983s
  1282  1172 -12947.230   50 9653 -11898.000 -12947.230  8.82%  53.7 1985s
  1288  1176 -12051.750  480 9681 -11898.000 -12947.190  8.82%  53.5 1990s
  1299  1185 -12947.190  197 3279 -11898.000 -12947.190  8.82%  1205 1995s
  1300  1185 -12375.083  406 4457 -11898.000 -12947.190  8.82%  1204 2010s

Cutting planes:
  Gomory: 44
  MIR: 238
  Flow cover: 2507
  Zero half: 904
  Mod-K: 28
  RLT: 318
  BQP: 508

Explored 1300 nodes (1722682 simplex iterations) in 2048.00 seconds (2885.73 work units)
Thread count was 1 (of 72 available processors)

Solution count 4: -11898 -11862 -3276 0 

Time limit reached
Best objective -1.189800000000e+04, best bound -1.294600000000e+04, gap 8.8082%

User-callback calls 14627, time in user-callback 0.07 sec

BQP_SOLUTION, 1940, 8856, -4152.000000, 2048.000545, 1, -1, 1, 1, -1, 1, -1, 1, 1, 1, -1, 1, 1, -1, 1, 1, 1, 1, 1, -1, 1, 1, 1, -1, 1, -1, 1, 1, -1, 1, -1, 1, -1, -1, 1, 1, 1, -1, -1, 1, -1, 1, 1, -1, 1, -1, -1, 1, 1, 1, 1, -1, 1, 1, -1, -1, 1, 1, 1, 1, 1, 1, -1, 1, 1, 1, 1, 1, 1, -1, -1, 1, -1, -1, 1, 1, 1, 1, 1, -1, 1, -1, -1, 1, 1, 1, -1, 1, 1, 1, -1, 1, -1, 1, 1, 1, 1, -1, 1, -1, 1, 1, 1, 1, 1, -1, 1, -1, 1, 1, 1, 1, 1, 1, -1, 1, -1, 1, -1, 1, 1, 1, 1, -1, 1, -1, -1, 1, 1, 1, 1, 1, -1, 1, -1, -1, 1, 1, 1, 1, -1, -1, -1, -1, 1, -1, 1, 1, 1, 1, -1, -1, 1, -1, 1, 1, 1, 1, 1, -1, 1, -1, 1, 1, 1, 1, 1, 1, -1, 1, -1, 1, 1, 1, 1, 1, -1, 1, 1, 1, 1, -1, 1, 1, 1, -1, 1, -1, 1, 1, 1, 1, 1, 1, 1, 1, -1, 1, 1, -1, -1, 1, 1, 1, -1, 1, -1, -1, -1, 1, 1, 1, -1, 1, -1, 1, 1, -1, 1, 1, 1, 1, -1, 1, -1, -1, 1, 1, 1, 1, -1, 1, -1, 1, 1, -1, 1, 1, 1, -1, 1, 1, -1, 1, -1, -1, 1, 1, 1, 1, 1, 1, 1, 1, -1, 1, 1, -1, 1, -1, 1, 1, -1, -1, 1, -1, 1, 1, -1, 1, 1, -1, -1, 1, -1, 1, 1, -1, 1, 1, -1, 1, 1, 1, 1, 1, -1, 1, 1, 1, -1, 1, 1, -1, 1, -1, 1, -1, 1, -1, 1, 1, 1, 1, 1, 1, -1, 1, -1, 1, -1, 1, -1, -1, 1, -1, -1, -1, 1, -1, 1, -1, 1, -1, -1, 1, 1, 1, -1, -1, -1, 1, -1, 1, -1, 1, -1, 1, 1, -1, 1, -1, 1, -1, 1, -1, 1, -1, 1, 1, 1, -1, -1, 1, 1, 1, -1, 1, 1, 1, -1, 1, -1, 1, -1, -1, -1, 1, -1, -1, -1, 1, 1, 1, -1, 1, 1, -1, -1, 1, 1, 1, 1, 1, -1, 1, -1, 1, -1, -1, 1, 1, -1, -1, 1, -1, 1, -1, -1, 1, -1, 1, -1, 1, -1, -1, 1, -1, 1, 1, -1, -1, 1, -1, -1, -1, -1, 1, 1, -1, 1, 1, -1, -1, 1, -1, 1, 1, -1, -1, 1, -1, -1, -1, 1, 1, -1, -1, 1, -1, -1, -1, -1, -1, 1, -1, -1, 1, 1, -1, 1, -1, 1, -1, -1, 1, 1, -1, -1, -1, 1, -1, 1, -1, -1, 1, -1, 1, -1, 1, -1, -1, 1, -1, 1, -1, 1, -1, 1, -1, 1, 1, -1, -1, 1, -1, 1, 1, 1, 1, -1, -1, 1, 1, 1, -1, 1, -1, 1, -1, -1, 1, 1, -1, 1, -1, -1, 1, 1, -1, 1, 1, -1, 1, -1, 1, 1, -1, 1, -1, 1, 1, 1, -1, 1, -1, -1, 1, 1, 1, -1, 1, -1, -1, 1, 1, -1, 1, -1, 1, -1, 1, 1, -1, 1, 1, 1, 1, 1, -1, -1, 1, -1, 1, 1, 1, 1, 1, 1, -1, 1, 1, -1, 1, 1, 1, 1, 1, 1, 1, 1, -1, 1, -1, -1, 1, 1, 1, 1, 1, -1, 1, -1, 1, -1, 1, 1, 1, 1, -1, -1, 1, 1, -1, 1, 1, -1, 1, -1, 1, -1, -1, 1, 1, 1, 1, 1, -1, 1, 1, -1, 1, 1, -1, 1, 1, -1, -1, 1, -1, -1, -1, 1, 1, 1, 1, -1, 1, 1, 1, 1, 1, 1, 1, -1, -1, 1, -1, 1, 1, -1, 1, 1, -1, -1, 1, 1, -1, -1, 1, 1, 1, 1, 1, -1, -1, 1, -1, 1, 1, -1, -1, 1, 1, 1, -1, -1, 1, -1, -1, -1, 1, -1, 1, 1, -1, 1, 1, -1, -1, 1, 1, 1, -1, -1, 1, 1, -1, -1, -1, 1, -1, -1, 1, -1, 1, 1, -1, 1, 1, -1, -1, 1, -1, 1, -1, -1, 1, -1, 1, -1, 1, 1, 1, -1, -1, 1, 1, 1, -1, 1, -1, 1, -1, -1, -1, 1, 1, -1, -1, -1, 1, -1, -1, 1, 1, 1, -1, 1, -1, 1, -1, -1, 1, 1, 1, -1, 1, 1, 1, -1, 1, 1, -1, 1, -1, 1, 1, 1, -1, -1, 1, 1, 1, -1, 1, 1, -1, -1, 1, 1, 1, -1, 1, 1, 1, -1, -1, -1, 1, 1, 1, -1, 1, -1, 1, -1, 1, 1, -1, -1, 1, -1, 1, -1, 1, 1, 1, 1, -1, 1, 1, 1, -1, -1, 1, 1, 1, 1, -1, 1, 1, -1, 1, -1, 1, 1, -1, -1, 1, 1, -1, -1, 1, 1, -1, 1, 1, -1, 1, 1, 1, -1, 1, 1, 1, -1, 1, -1, -1, 1, -1, 1, 1, -1, 1, 1, 1, -1, 1, -1, 1, 1, 1, -1, 1, 1, -1, -1, -1, 1, 1, 1, 1, 1, 1, 1, 1, 1, 1, 1, 1, -1, 1, 1, -1, -1, 1, 1, -1, 1, -1, 1, -1, 1, -1, 1, 1, 1, -1, 1, 1, -1, -1, 1, 1, 1, 1, -1, 1, -1, 1, 1, -1, 1, 1, 1, 1, -1, 1, -1, -1, 1, 1, 1, 1, 1, 1, -1, -1, -1, 1, 1, 1, 1, -1, 1, 1, -1, -1, -1, 1, 1, 1, -1, -1, -1, 1, -1, 1, 1, 1, 1, 1, -1, -1, 1, -1, -1, 1, 1, 1, -1, -1, 1, 1, -1, -1, 1, 1, 1, -1, 1, 1, -1, 1, -1, 1, 1, 1, -1, -1, -1, 1, 1, 1, 1, 1, -1, 1, -1, 1, 1, 1, 1, 1, -1, 1, 1, -1, 1, -1, -1, 1, 1, -1, 1, 1, -1, -1, 1, 1, 1, 1, -1, 1, 1, -1, -1, 1, 1, 1, 1, 1, -1, -1, 1, 1, -1, -1, 1, -1, 1, -1, 1, -1, 1, -1, -1, 1, 1, 1, -1, 1, -1, 1, 1, -1, 1, 1, 1, 1, 1, -1, 1, 1, -1, 1, 1, -1, 1, -1, 1, -1, 1, -1, -1, -1, 1, 1, 1, -1, 1, -1, -1, 1, 1, -1, -1, 1, 1, 1, 1, -1, -1, -1, 1, 1, -1, 1, 1, -1, 1, 1, -1, 1, -1, 1, 1, 1, -1, -1, -1, 1, -1, 1, -1, 1, -1, 1, -1, -1, 1, 1, 1, 1, -1, 1, -1, 1, -1, 1, -1, 1, -1, 1, 1, -1, 1, -1, 1, -1, 1, -1, 1, 1, -1, -1, 1, -1, 1, 1, -1, 1, 1, 1, -1, 1, -1, -1, 1, 1, 1, 1, 1, -1, -1, 1, 1, 1, -1, -1, 1, 1, -1, 1, 1, -1, 1, 1, -1, -1, 1, -1, 1, 1, -1, 1, -1, 1, 1, -1, 1, 1, -1, 1, 1, -1, 1, 1, 1, -1, 1, 1, 1, 1, 1, 1, 1, -1, -1, -1, 1, -1, -1, -1, -1, -1, 1, -1, 1, -1, 1, -1, 1, -1, 1, -1, -1, -1, -1, 1, -1, -1, 1, 1, 1, -1, -1, 1, -1, -1, 1, 1, 1, -1, -1, -1, -1, 1, -1, 1, 1, -1, 1, -1, -1, 1, 1, -1, 1, 1, -1, -1, -1, -1, 1, -1, -1, 1, 1, 1, 1, -1, -1, -1, -1, -1, 1, 1, -1, -1, -1, -1, -1, -1, -1, 1, -1, 1, -1, -1, -1, -1, -1, -1, 1, 1, 1, 1, -1, 1, -1, 1, -1, -1, 1, 1, -1, -1, -1, 1, -1, -1, 1, 1, 1, -1, -1, -1, 1, -1, -1, 1, 1, 1, -1, -1, 1, -1, -1, -1, -1, 1, -1, -1, 1, -1, 1, -1, -1, -1, 1, -1, -1, -1, 1, -1, -1, 1, -1, 1, 1, -1, -1, 1, 1, -1, -1, -1, 1, -1, -1, -1, -1, 1, -1, -1, -1, -1, -1, -1, 1, 1, 1, -1, -1, -1, -1, -1, -1, 1, -1, 1, -1, -1, -1, -1, 1, -1, 1, -1, 1, -1, -1, -1, -1, -1, 1, -1, -1, 1, 1, -1, -1, -1, 1, -1, -1, 1, 1, -1, -1, -1, -1, -1, -1, -1, 1, 1, -1, 1, 1, -1, -1, -1, 1, 1, -1, -1, -1, -1, -1, -1, -1, 1, -1, 1, -1, -1, -1, -1, -1, -1, 1, 1, 1, -1, -1, 1, -1, -1, -1, 1, 1, 1, -1, -1, -1, -1, 1, -1, 1, 1, 1, -1, -1, -1, -1, 1, -1, 1, 1, 1, -1, -1, -1, -1, 1, -1, 1, 1, 1, -1, -1, 1, -1, 1, -1, 1, -1, 1, 1, -1, -1, -1, -1, -1, 1, 1, 1, 1, -1, 1, 1, -1, -1, 1, -1, 1, 1, 1, -1, 1, -1, 1, 1, -1, -1, 1, -1, -1, 1, 1, 1, -1, 1, -1, -1, 1, -1, -1, 1, 1, 1, 1, 1, -1, -1, 1, -1, 1, 1, 1, -1, 1, -1, 1, -1, -1, 1, 1, -1, -1, 1, -1, 1, -1, 1, -1, 1, 1, -1, 1, -1, 1, 1, 1, 1, 1, 1, -1, 1, -1, -1, -1, 1, -1, 1, -1, 1, 1, -1, 1, 1, 1, -1, 1, 1, 1, -1, 1, -1, 1, -1, 1, 1, 1, 1, 1, -1, -1, 1, -1, 1, 1, 1, 1, -1, -1, -1, -1, -1, -1, 1, 1, 1, 1, 1, -1, 1, -1, 1, -1, -1, 1, -1, -1, 1, -1, 1, 1, -1, 1, -1, -1, -1, 1, -1, 1, 1, 1, -1, 1, -1, 1, -1, -1, -1, -1, 1, 1, 1, -1, 1, -1, 1, 1, -1, -1, -1, 1, -1, 1, -1, 1, 1, -1, -1, -1, 1, -1, 1, 1, -1, 1, 1, 1, -1, 1, -1, -1, -1, -1, 1, -1, 1, -1, -1, -1, 1, 1, -1, 1, 1, -1, -1, -1, -1, -1, 1, -1, 1, -1, -1, -1, -1, -1, 1, 1, -1, 1, 1, -1, -1, -1, -1, -1, 1, -1, 1, 1, -1, -1, 1, -1, 1, 1, 1, 1, 1, -1, -1, -1, -1, 1, 1, -1, 1, -1, 1, -1, -1, -1, -1, 1, 1, 1, -1, -1, -1, -1, 1, 1, -1, 1, 1, 1, -1, 1, -1, -1, -1, -1, 1, 1, -1, -1, -1, -1, -1, -1, 1, -1, 1, -1, -1, 1, -1, -1, -1, 1, 1, -1, -1, 1, -1, -1, -1, -1, 1, -1, 1, -1, -1, -1, -1, -1, -1, -1, 1, -1, -1, 1, -1, -1, -1, -1, -1, 1, -1, -1, 1, -1, -1, 1, -1, -1, 1, 1, -1, 1, 1, -1, -1, 1, -1, 1, -1, -1, -1, -1, -1, -1, 1, -1, -1, 1, -1, -1, 1, -1, -1, -1, 1, -1, 1, -1, 1, -1, 1, -1, 1, -1, -1, -1, -1, 1, 1, -1, -1, 1, -1, 1, -1, 1, 1, -1, -1, -1, 1, -1, 1, 1, -1, 1, -1, -1, 1, -1, 1, -1, -1, -1, 1, -1, 1, -1, -1, 1, -1, -1, 1, -1, -1, -1, -1, -1, 1, -1, 1, -1, -1, -1, -1, -1, -1, -1, -1, -1, 1, -1, -1, 1, -1, 1, 1, -1, 1, -1, 1, -1, 1, -1, -1, 1, -1, -1, -1, 1, -1, -1, 1, -1, -1, 1, -1, -1, 1, -1, -1, -1, -1, 1, 1, -1, -1, 1, 1, -1, 1, -1, 1, -1, -1, 1, 1, 1, 1, -1
BQP_DATA, 1940, 8856, -4152.000000, -5200.000000, -11898.000000, -12946.000000, 2048.000545, 3721, 1300
